5 5
3 27 2 3 4 57 1 65 0 20
1 71 2 41 0 1 3 74 4 76
2 4 0 71 3 10 1 86 4 89
3 29 0 15 2 19 4 58 1 53
2 46 4 18 3 3 0 70 1 22
-1
0 2 3 4 5
0 2 3 4 5
0 1 2 3 5
0 2 5
0 2 3 5
-2
35 123 188 199
137 144 205 324
5 103 133 401
63 224
68 68 240

336 10
11 16 7 23 4
5 13 19 3 24
10 1 20 17 6
0 15 12 22 8
2 21 18 14 9
